%SETS
JOBS = 1..15;
MACHINES = 1..15;
SPEED    = 1;

time = array3d(JOBS,MACHINES,1..SPEED,time = time = array3d(JOBS,MACHINES,1..SPEED,time = [23, 1, 21, 7, 13, 8, 30, 15, 4, 20, 39, 9, 6, 12, 71, 96, 28, 60, 48, 12, 2, 27,... ] // array too long to display, dimensions: (30)
 // array too long to display, dimensions: (225)
);
energy = array3d(JOBS,MACHINES,1..SPEED,energy = energy = array3d(JOBS,MACHINES,1..SPEED,energy = [79, 99, 81, 93, 87, 92, 74, 86, 96, 81, 67, 91, 94, 88, 49, 38, 75, 54, 61, 88, ... ] // array too long to display, dimensions: (30)
 // array too long to display, dimensions: (225)
);
precedence = array2d(JOBS,MACHINES,precedence = precedence = array2d(JOBS,MACHINES,precedence = [4, 14, 13, 8, 1, 11, 12, 10, 5, 6, 2, 3, 0, 7, 9, 12, 10, 4, 0, 8, 5, 14, 6, 1, ... ] // array too long to display, dimensions: (30)
 // array too long to display, dimensions: (225)
);